name="miles500";
nr_vertices=48;
nr_edges=525;
neighborhoods=[{1,2,7,8,12,13,16,18,19,20,21,22,23,24,26,27,28,30,31,32,33,34,35,38,39,41,42,43,45,46,47},{0,7,9,12,13,14,16,18,19,21,22,23,24,26,27,30,31,32,33,34,35,38,39,41,42,43,46,47},{0,3,8,18,19,20,28,30,33,34,36,37,38,39,40,41,42,43,44,45},{2,8,10,11,15,17,18,20,25,28,29,30,33,36,37,38,39,40,44},{5,6,11,15,29},{4,6},{4,5},{0,1,9,12,13,14,16,18,19,21,22,23,24,26,27,30,31,32,34,35,39,41,42,45,46,47},{0,2,3,17,18,19,20,25,28,29,30,33,36,37,38,39,40,41,42,43,44,45},{1,7,12,14,16,22,26,35,43,46},{3,11,15,17,25,37,40},{3,4,10,15,17,25},{0,1,7,9,13,14,16,18,19,21,22,23,26,27,30,31,32,34,35,41,42,43,46,47},{0,1,7,12,16,18,19,21,22,23,24,26,27,30,31,32,33,34,39,41,42,45,46,47},{1,7,9,12,16,19,20,22,23,26,30,35,38,41,42,43,46,47},{3,4,10,11,17,25,37,40},{0,1,7,9,12,13,14,18,19,20,21,22,23,24,26,27,30,31,32,33,34,35,38,39,41,42,43,45,46,47},{3,8,10,11,15,25,28,29,37,40},{0,1,2,3,7,8,12,13,16,19,20,21,22,23,24,26,27,28,30,31,32,33,34,35,36,38,39,40,41,42,43,44,45,46,47},{0,1,2,7,8,12,13,14,16,18,20,21,22,23,24,26,27,28,30,31,32,33,34,35,36,38,39,40,41,42,43,44,45,46,47},{0,2,3,8,14,16,18,19,22,23,28,29,30,33,34,35,36,37,38,39,40,41,42,43,44,45},{0,1,7,12,13,16,18,19,22,23,24,26,27,30,31,32,34,35,39,41,42,45,46,47},{0,1,7,9,12,13,14,16,18,19,20,21,23,26,27,30,31,32,33,34,35,38,39,41,42,43,46,47},{0,1,7,12,13,14,16,18,19,20,21,22,24,26,27,30,31,32,33,34,35,38,39,41,42,45,46,47},{0,1,7,13,16,18,19,21,23,26,27,30,31,32,34,39,41,42,45,46,47},{3,8,10,11,15,17,28,29,36,37,40,44},{0,1,7,9,12,13,14,16,18,19,21,22,23,24,27,30,31,32,33,34,35,38,39,41,42,45,46,47},{0,1,7,12,13,16,18,19,21,22,23,24,26,30,31,32,34,39,41,42,45,46,47},{0,2,3,8,17,18,19,20,25,29,30,33,36,37,38,39,40,41,42,43,44,45},{3,4,8,17,20,25,28,33,36,37,38,39,40,44},{0,1,2,3,7,8,12,13,14,16,18,19,20,21,22,23,24,26,27,28,31,32,33,34,35,36,38,39,40,41,42,43,44,45,46,47},{0,1,7,12,13,16,18,19,21,22,23,24,26,27,30,32,33,34,35,39,41,42,45,46,47},{0,1,7,12,13,16,18,19,21,22,23,24,26,27,30,31,34,42,45,46,47},{0,1,2,3,8,13,16,18,19,20,22,23,26,28,29,30,31,34,35,36,37,38,39,40,41,42,43,44,45},{0,1,2,7,12,13,16,18,19,20,21,22,23,24,26,27,30,31,32,33,38,39,41,42,45,46,47},{0,1,7,9,12,14,16,18,19,20,21,22,23,26,30,31,33,38,39,41,42,43,46,47},{2,3,8,18,19,20,25,28,29,30,33,37,38,39,40,41,42,43,44},{2,3,8,10,15,17,20,25,28,29,33,36,38,39,40,41,44},{0,1,2,3,8,14,16,18,19,20,22,23,26,28,29,30,33,34,35,36,37,39,40,41,42,43,44,45},{0,1,2,3,7,8,13,16,18,19,20,21,22,23,24,26,27,28,29,30,31,33,34,35,36,37,38,40,41,42,43,44,45},{2,3,8,10,15,17,18,19,20,25,28,29,30,33,36,37,38,39,41,44},{0,1,2,7,8,12,13,14,16,18,19,20,21,22,23,24,26,27,28,30,31,33,34,35,36,37,38,39,40,42,43,44,45,46,47},{0,1,2,7,8,12,13,14,16,18,19,20,21,22,23,24,26,27,28,30,31,32,33,34,35,36,38,39,41,43,44,45,46,47},{0,1,2,8,9,12,14,16,18,19,20,22,28,30,33,35,36,38,39,41,42,44},{2,3,8,18,19,20,25,28,29,30,33,36,37,38,39,40,41,42,43},{0,2,7,8,13,16,18,19,20,21,23,24,26,27,28,30,31,32,33,34,38,39,41,42,47},{0,1,7,9,12,13,14,16,18,19,21,22,23,24,26,27,30,31,32,34,35,41,42,47},{0,1,7,12,13,14,16,18,19,21,22,23,24,26,27,30,31,32,34,35,41,42,45,46}];
weights=[19,19,19,19,19,19,19,18,18,18,18,18,17,17,17,17,16,16,15,15,15,15,14,13,13,13,12,12,12,12,11,11,11,10,10,10,9,9,8,7,7,6,6,6,6,4,4,4];
